Geographic Exponential Decay
20 70 305 111 266 42 50 308 200 84 80 182 30 156 69 128 232 244 10 152 44
p edge 320 1199
e 0 181 2.0
e 0 39 6.0
e 1 74 5.0
e 1 255 8.0
e 1 68 2.0
e 2 180 25.0
e 2 46 9.0
e 2 9 12.0
e 2 170 12.0
e 2 220 25.0
e 2 132 1.0
e 2 265 20.0
e 2 286 6.0
e 2 240 19.0
e 2 35 20.0
e 3 312 6.0
e 3 27 21.0
e 3 305 46.0
e 3 115 2.0
e 3 290 8.0
e 3 81 7.0
e 3 82 12.0
e 3 126 15.0
e 3 107 1.0
e 3 49 15.0
e 4 75 3.0
e 4 210 2.0
e 5 129 1.0
e 5 179 2.0
e 6 218 5.0
e 6 284 2.0
e 7 60 1.0
e 7 108 1.0
e 8 213 19.0
e 8 266 76.0
e 8 183 1.0
e 8 156 35.0
e 8 206 25.0
e 8 40 10.0
e 8 77 4.0
e 8 230 7.0
e 8 54 22.0
e 8 146 20.0
e 9 4 1.0
e 10 164 11.0
e 10 205 55.0
e 10 99 53.0
e 10 14 41.0
e 10 203 19.0
e 10 94 38.0
e 10 140 61.0
e 10 175 88.0
e 10 148 5.0
e 10 155 68.0
e 10 163 24.0
e 10 165 3.0
e 10 231 38.0
e 10 152 54.0
e 10 261 23.0
e 10 40 73.0
e 10 317 30.0
e 10 12 24.0
e 10 233 16.0
e 10 182 9.0
e 10 55 31.0
e 10 314 78.0
e 10 166 82.0
e 10 70 46.0
e 10 78 18.0
e 10 7 71.0
e 10 208 34.0
e 10 211 96.0
e 10 225 51.0
e 10 174 96.0
e 10 275 3.0
e 10 45 40.0
e 10 149 16.0
e 10 243 20.0
e 10 41 33.0
e 10 118 46.0
e 10 252 25.0
e 11 8 11.0
e 11 127 6.0
e 12 2 24.0
e 12 199 5.0
e 12 219 6.0
e 12 46 5.0
e 13 22 1.0
e 13 266 6.0
e 13 64 2.0
e 13 204 11.0
e 13 100 1.0
e 14 257 2.0
e 14 260 3.0
e 15 29 6.0
e 15 240 2.0
e 16 260 1.0
e 16 46 1.0
e 17 44 24.0
e 17 291 7.0
e 17 296 9.0
e 17 283 9.0
e 17 193 10.0
e 18 79 22.0
e 18 168 24.0
e 18 52 13.0
e 18 261 13.0
e 18 31 1.0
e 18 123 15.0
e 18 22 15.0
e 18 244 49.0
e 18 303 23.0
e 18 23 8.0
e 19 88 1.0
e 19 29 3.0
e 20 201 6.0
e 20 280 3.0
e 20 200 30.0
e 20 203 9.0
e 20 238 10.0
e 21 105 2.0
e 21 126 1.0
e 21 37 2.0
e 23 25 5.0
e 24 253 1.0
e 24 229 1.0
e 25 85 4.0
e 25 220 4.0
e 26 141 2.0
e 26 304 1.0
e 27 205 1.0
e 28 40 1.0
e 28 165 1.0
e 29 220 1.0
e 30 174 19.0
e 30 107 83.0
e 30 235 97.0
e 30 71 17.0
e 30 78 35.0
e 30 68 24.0
e 30 100 62.0
e 30 65 48.0
e 30 260 56.0
e 30 177 53.0
e 30 23 7.0
e 30 222 34.0
e 30 12 78.0
e 30 94 54.0
e 30 66 5.0
e 30 126 49.0
e 30 249 50.0
e 30 29 38.0
e 30 59 31.0
e 30 245 100.0
e 30 278 8.0
e 30 130 9.0
e 30 170 19.0
e 30 36 35.0
e 30 53 10.0
e 30 204 7.0
e 30 315 90.0
e 30 128 100.0
e 30 255 78.0
e 30 143 97.0
e 30 298 23.0
e 30 4 6.0
e 30 238 67.0
e 30 309 82.0
e 30 256 61.0
e 30 227 71.0
e 30 40 74.0
e 31 2 8.0
e 31 276 11.0
e 31 305 61.0
e 31 0 9.0
e 32 104 1.0
e 32 235 6.0
e 32 282 9.0
e 33 82 1.0
e 33 5 1.0
e 34 99 3.0
e 34 115 6.0
e 34 118 1.0
e 35 164 11.0
e 35 215 10.0
e 35 70 74.0
e 35 298 1.0
e 36 121 2.0
e 36 152 39.0
e 37 26 5.0
e 37 281 5.0
e 38 80 95.0
e 38 19 1.0
e 39 62 11.0
e 39 124 7.0
e 39 140 6.0
e 39 236 6.0
e 41 104 1.0
e 42 242 13.0
e 42 170 53.0
e 42 207 9.0
e 42 254 3.0
e 42 211 57.0
e 42 104 37.0
e 42 171 52.0
e 42 212 15.0
e 42 255 11.0
e 42 252 87.0
e 42 69 37.0
e 42 58 61.0
e 42 249 25.0
e 42 256 77.0
e 42 0 66.0
e 42 50 51.0
e 42 53 37.0
e 42 183 3.0
e 42 100 29.0
e 42 17 56.0
e 42 37 96.0
e 42 121 43.0
e 42 149 98.0
e 42 202 45.0
e 42 234 83.0
e 42 188 97.0
e 42 98 20.0
e 42 194 16.0
e 42 2 35.0
e 42 201 63.0
e 42 265 91.0
e 42 145 36.0
e 42 155 41.0
e 42 244 65.0
e 42 310 2.0
e 42 14 35.0
e 42 181 61.0
e 43 155 2.0
e 43 3 18.0
e 44 143 24.0
e 44 270 43.0
e 44 14 54.0
e 44 102 8.0
e 44 1 4.0
e 44 120 18.0
e 44 93 33.0
e 44 287 9.0
e 44 5 15.0
e 44 88 53.0
e 44 57 72.0
e 44 144 77.0
e 44 187 15.0
e 44 92 70.0
e 44 99 77.0
e 44 266 17.0
e 44 126 37.0
e 44 282 57.0
e 44 95 11.0
e 44 209 41.0
e 44 238 38.0
e 44 96 10.0
e 44 182 95.0
e 44 20 68.0
e 44 46 87.0
e 44 139 16.0
e 44 314 84.0
e 44 127 9.0
e 44 156 89.0
e 44 274 70.0
e 44 76 84.0
e 44 21 77.0
e 44 24 83.0
e 44 155 35.0
e 44 317 76.0
e 44 269 7.0
e 45 50 9.0
e 45 294 20.0
e 45 105 7.0
e 45 295 18.0
e 45 39 10.0
e 45 311 10.0
e 45 9 17.0
e 45 211 11.0
e 45 56 21.0
e 47 284 1.0
e 47 130 11.0
e 47 314 1.0
e 47 134 12.0
e 47 274 1.0
e 48 112 4.0
e 48 198 5.0
e 48 241 5.0
e 49 268 5.0
e 50 12 37.0
e 50 83 57.0
e 50 215 49.0
e 50 46 67.0
e 50 248 84.0
e 50 221 19.0
e 50 150 40.0
e 50 262 5.0
e 50 3 84.0
e 50 234 19.0
e 50 281 48.0
e 50 238 44.0
e 50 32 86.0
e 50 174 33.0
e 50 29 81.0
e 50 16 69.0
e 50 184 53.0
e 50 245 61.0
e 50 285 30.0
e 50 89 42.0
e 50 305 97.0
e 50 115 44.0
e 50 298 87.0
e 50 8 30.0
e 50 226 23.0
e 50 162 96.0
e 50 137 61.0
e 50 291 83.0
e 50 87 6.0
e 50 84 24.0
e 50 44 100.0
e 50 242 28.0
e 50 185 56.0
e 50 255 42.0
e 50 308 59.0
e 51 38 2.0
e 51 191 17.0
e 51 269 25.0
e 51 310 5.0
e 51 236 23.0
e 51 92 47.0
e 51 130 20.0
e 51 30 41.0
e 51 274 38.0
e 51 278 39.0
e 51 205 13.0
e 51 238 46.0
e 51 133 37.0
e 51 52 29.0
e 51 64 15.0
e 51 14 43.0
e 51 206 42.0
e 51 275 49.0
e 51 311 19.0
e 54 75 3.0
e 55 145 2.0
e 56 266 38.0
e 56 48 9.0
e 56 187 11.0
e 56 306 4.0
e 57 317 1.0
e 57 266 86.0
e 58 5 6.0
e 58 213 6.0
e 58 303 1.0
e 58 179 4.0
e 58 117 15.0
e 58 294 19.0
e 58 13 9.0
e 58 154 14.0
e 58 249 12.0
e 59 274 4.0
e 59 5 5.0
e 60 170 2.0
e 61 62 5.0
e 61 45 22.0
e 61 55 7.0
e 61 189 12.0
e 61 208 6.0
e 62 71 11.0
e 63 207 3.0
e 63 206 1.0
e 63 281 1.0
e 65 211 3.0
e 65 181 1.0
e 66 310 6.0
e 66 293 5.0
e 67 254 1.0
e 67 233 1.0
e 69 204 26.0
e 69 312 4.0
e 69 246 70.0
e 69 250 39.0
e 69 9 9.0
e 69 163 71.0
e 69 225 48.0
e 69 64 2.0
e 69 249 40.0
e 69 83 67.0
e 69 54 26.0
e 69 139 59.0
e 69 81 89.0
e 69 156 90.0
e 69 245 19.0
e 69 235 8.0
e 69 191 70.0
e 69 310 99.0
e 69 150 77.0
e 69 198 82.0
e 69 29 80.0
e 69 123 26.0
e 69 128 17.0
e 69 12 97.0
e 69 205 98.0
e 69 11 80.0
e 69 102 51.0
e 69 62 19.0
e 69 33 25.0
e 69 77 2.0
e 69 226 86.0
e 69 129 91.0
e 69 3 7.0
e 69 95 53.0
e 69 197 63.0
e 69 57 64.0
e 70 206 30.0
e 70 115 6.0
e 70 259 8.0
e 70 295 40.0
e 70 105 35.0
e 70 217 81.0
e 70 195 72.0
e 70 159 54.0
e 70 261 63.0
e 70 76 25.0
e 70 103 91.0
e 70 25 2.0
e 70 16 88.0
e 70 316 82.0
e 70 138 76.0
e 70 254 79.0
e 70 119 96.0
e 70 62 26.0
e 70 1 18.0
e 70 134 2.0
e 70 160 8.0
e 70 236 60.0
e 70 68 99.0
e 70 65 96.0
e 70 63 28.0
e 70 272 84.0
e 70 178 2.0
e 70 294 94.0
e 70 260 55.0
e 70 196 95.0
e 70 291 90.0
e 70 215 49.0
e 70 51 86.0
e 70 224 44.0
e 70 176 1.0
e 71 74 8.0
e 71 64 11.0
e 71 245 1.0
e 72 153 3.0
e 72 164 4.0
e 72 140 2.0
e 73 9 6.0
e 73 2 8.0
e 73 12 4.0
e 73 246 9.0
e 73 19 9.0
e 74 118 1.0
e 75 171 10.0
e 75 6 5.0
e 75 104 11.0
e 78 304 12.0
e 78 114 9.0
e 78 285 7.0
e 79 191 10.0
e 80 317 23.0
e 80 81 87.0
e 80 143 74.0
e 80 296 49.0
e 80 225 89.0
e 80 141 24.0
e 80 145 59.0
e 80 98 75.0
e 80 308 17.0
e 80 220 99.0
e 80 20 5.0
e 80 236 72.0
e 80 27 71.0
e 80 64 22.0
e 80 4 81.0
e 80 82 12.0
e 80 292 58.0
e 80 107 82.0
e 80 77 10.0
e 80 249 41.0
e 80 160 31.0
e 80 293 57.0
e 80 299 11.0
e 80 151 20.0
e 80 56 58.0
e 80 25 97.0
e 80 138 49.0
e 80 171 70.0
e 80 109 42.0
e 80 291 17.0
e 80 216 47.0
e 80 173 21.0
e 80 129 63.0
e 80 13 84.0
e 80 316 62.0
e 80 297 27.0
e 83 116 2.0
e 84 260 58.0
e 84 268 97.0
e 84 127 87.0
e 84 237 52.0
e 84 3 36.0
e 84 34 99.0
e 84 289 17.0
e 84 119 29.0
e 84 225 39.0
e 84 51 63.0
e 84 125 64.0
e 84 224 54.0
e 84 285 72.0
e 84 19 34.0
e 84 197 73.0
e 84 221 31.0
e 84 113 48.0
e 84 310 88.0
e 84 284 14.0
e 84 189 25.0
e 84 72 84.0
e 84 43 86.0
e 84 208 91.0
e 84 236 38.0
e 84 212 72.0
e 84 280 63.0
e 84 288 82.0
e 84 191 38.0
e 84 216 60.0
e 84 86 75.0
e 84 165 47.0
e 84 10 79.0
e 84 186 15.0
e 84 219 61.0
e 84 246 78.0
e 84 115 90.0
e 85 265 1.0
e 86 87 31.0
e 86 72 46.0
e 86 191 16.0
e 86 25 49.0
e 86 93 11.0
e 86 195 20.0
e 86 318 50.0
e 86 161 40.0
e 86 95 48.0
e 86 64 27.0
e 86 280 10.0
e 86 130 35.0
e 86 97 26.0
e 86 0 30.0
e 86 186 31.0
e 86 124 49.0
e 86 237 2.0
e 86 196 39.0
e 87 219 5.0
e 89 162 1.0
e 90 4 5.0
e 90 28 4.0
e 90 227 3.0
e 91 214 3.0
e 91 212 2.0
e 92 254 1.0
e 96 242 1.0
e 97 261 6.0
e 98 72 11.0
e 98 139 5.0
e 98 304 6.0
e 100 299 6.0
e 100 12 1.0
e 101 179 10.0
e 101 9 11.0
e 101 241 1.0
e 101 120 10.0
e 101 311 11.0
e 103 250 1.0
e 105 117 7.0
e 105 307 7.0
e 106 203 1.0
e 106 238 1.0
e 108 213 1.0
e 109 172 2.0
e 109 264 7.0
e 110 84 93.0
e 110 7 1.0
e 111 38 42.0
e 111 188 92.0
e 111 193 1.0
e 111 106 24.0
e 111 166 67.0
e 111 96 18.0
e 111 104 75.0
e 111 34 4.0
e 111 92 70.0
e 111 226 24.0
e 111 256 44.0
e 111 245 84.0
e 111 78 37.0
e 111 207 92.0
e 111 194 9.0
e 111 257 49.0
e 111 215 89.0
e 111 4 22.0
e 111 275 39.0
e 111 271 35.0
e 111 49 82.0
e 111 6 54.0
e 111 196 28.0
e 111 272 87.0
e 111 44 14.0
e 111 265 93.0
e 111 295 97.0
e 111 253 57.0
e 111 230 48.0
e 111 58 46.0
e 111 276 45.0
e 111 177 18.0
e 111 252 36.0
e 111 185 39.0
e 111 266 42.0
e 111 155 78.0
e 111 273 10.0
e 112 286 12.0
e 112 297 3.0
e 112 149 10.0
e 112 127 10.0
e 113 12 1.0
e 113 2 6.0
e 113 309 1.0
e 113 146 2.0
e 114 31 6.0
e 114 317 10.0
e 116 270 1.0
e 119 271 5.0
e 122 60 5.0
e 122 51 4.0
e 122 207 3.0
e 123 159 2.0
e 125 117 2.0
e 125 234 1.0
e 128 2 100.0
e 128 202 68.0
e 128 204 76.0
e 128 283 9.0
e 128 246 16.0
e 128 135 28.0
e 128 0 69.0
e 128 190 59.0
e 128 231 90.0
e 128 205 60.0
e 128 232 14.0
e 128 25 80.0
e 128 172 17.0
e 128 119 8.0
e 128 140 39.0
e 128 68 71.0
e 128 309 94.0
e 128 63 7.0
e 128 196 44.0
e 128 187 97.0
e 128 53 54.0
e 128 307 13.0
e 128 99 80.0
e 128 29 81.0
e 128 298 64.0
e 128 78 65.0
e 128 225 31.0
e 128 234 57.0
e 128 4 73.0
e 128 260 1.0
e 128 123 92.0
e 128 274 2.0
e 128 50 88.0
e 128 102 62.0
e 128 281 75.0
e 131 161 1.0
e 131 162 1.0
e 132 52 17.0
e 132 81 22.0
e 132 68 10.0
e 132 236 8.0
e 132 265 17.0
e 132 53 9.0
e 132 228 21.0
e 132 240 16.0
e 132 188 2.0
e 133 132 1.0
e 133 119 4.0
e 133 60 8.0
e 133 124 1.0
e 134 48 4.0
e 135 107 11.0
e 135 219 9.0
e 135 302 1.0
e 135 239 1.0
e 136 72 4.0
e 136 230 2.0
e 136 257 6.0
e 136 251 17.0
e 136 151 13.0
e 136 38 7.0
e 136 7 17.0
e 136 114 3.0
e 136 96 17.0
e 136 226 46.0
e 137 121 2.0
e 142 150 1.0
e 142 194 16.0
e 144 73 7.0
e 147 24 1.0
e 147 132 13.0
e 148 260 5.0
e 148 63 1.0
e 152 89 38.0
e 152 159 97.0
e 152 249 23.0
e 152 269 93.0
e 152 52 5.0
e 152 304 72.0
e 152 196 65.0
e 152 176 49.0
e 152 125 38.0
e 152 280 50.0
e 152 172 39.0
e 152 211 11.0
e 152 60 96.0
e 152 254 89.0
e 152 179 58.0
e 152 65 70.0
e 152 237 40.0
e 152 167 10.0
e 152 97 41.0
e 152 222 43.0
e 152 295 42.0
e 152 305 75.0
e 152 143 87.0
e 152 30 14.0
e 152 279 94.0
e 152 216 65.0
e 152 51 84.0
e 152 168 33.0
e 152 270 25.0
e 152 229 8.0
e 152 5 42.0
e 152 47 49.0
e 152 44 94.0
e 152 183 46.0
e 152 261 77.0
e 153 273 6.0
e 154 291 1.0
e 155 169 3.0
e 155 204 10.0
e 155 156 81.0
e 155 183 20.0
e 155 67 19.0
e 156 216 59.0
e 156 219 56.0
e 156 159 2.0
e 156 144 27.0
e 156 80 36.0
e 156 152 82.0
e 156 233 37.0
e 156 265 76.0
e 156 187 70.0
e 156 89 24.0
e 156 145 96.0
e 156 292 33.0
e 156 287 39.0
e 156 288 11.0
e 156 90 55.0
e 156 195 10.0
e 156 257 57.0
e 156 276 14.0
e 156 296 47.0
e 156 29 42.0
e 156 106 36.0
e 156 73 61.0
e 156 16 97.0
e 156 60 41.0
e 156 34 79.0
e 156 86 19.0
e 156 91 19.0
e 156 234 37.0
e 156 313 34.0
e 156 0 95.0
e 156 204 61.0
e 156 258 7.0
e 156 47 2.0
e 157 195 5.0
e 157 178 6.0
e 157 82 1.0
e 158 230 3.0
e 158 113 12.0
e 160 184 17.0
e 161 238 3.0
e 161 28 1.0
e 161 5 4.0
e 164 108 4.0
e 164 9 1.0
e 167 306 8.0
e 167 144 8.0
e 167 301 4.0
e 167 139 9.0
e 168 3 11.0
e 169 124 11.0
e 169 111 97.0
e 169 268 4.0
e 169 98 9.0
e 173 215 5.0
e 175 49 1.0
e 178 9 2.0
e 178 131 7.0
e 178 289 2.0
e 180 265 1.0
e 182 196 21.0
e 182 6 92.0
e 182 7 24.0
e 182 285 69.0
e 182 131 58.0
e 182 238 97.0
e 182 171 81.0
e 182 134 31.0
e 182 286 30.0
e 182 172 75.0
e 182 57 56.0
e 182 139 49.0
e 182 155 53.0
e 182 45 2.0
e 182 243 93.0
e 182 212 78.0
e 182 207 32.0
e 182 146 4.0
e 182 291 29.0
e 182 269 22.0
e 182 42 68.0
e 182 83 91.0
e 182 287 82.0
e 182 250 27.0
e 182 1 76.0
e 182 263 1.0
e 182 208 66.0
e 182 261 64.0
e 182 305 15.0
e 182 34 59.0
e 182 229 7.0
e 182 46 90.0
e 182 47 2.0
e 182 53 51.0
e 182 268 43.0
e 183 221 15.0
e 183 9 23.0
e 183 73 8.0
e 183 265 1.0
e 183 227 7.0
e 183 119 1.0
e 184 267 19.0
e 184 173 19.0
e 184 52 8.0
e 184 24 5.0
e 184 9 3.0
e 184 230 3.0
e 184 261 2.0
e 184 60 14.0
e 185 304 1.0
e 188 286 3.0
e 188 5 16.0
e 188 113 7.0
e 188 274 10.0
e 188 25 23.0
e 188 300 7.0
e 188 252 11.0
e 190 50 9.0
e 190 162 4.0
e 190 54 7.0
e 190 158 6.0
e 192 150 3.0
e 192 27 4.0
e 192 22 5.0
e 193 273 6.0
e 194 21 23.0
e 194 57 9.0
e 194 163 19.0
e 194 272 2.0
e 194 88 21.0
e 194 139 24.0
e 194 53 8.0
e 199 286 2.0
e 199 195 8.0
e 199 48 8.0
e 199 43 7.0
e 200 146 67.0
e 200 49 20.0
e 200 37 59.0
e 200 306 19.0
e 200 50 44.0
e 200 66 82.0
e 200 280 9.0
e 200 270 70.0
e 200 58 88.0
e 200 239 93.0
e 200 297 36.0
e 200 41 44.0
e 200 113 65.0
e 200 77 4.0
e 200 119 88.0
e 200 208 72.0
e 200 1 57.0
e 200 11 77.0
e 200 298 41.0
e 200 153 62.0
e 200 18 49.0
e 200 316 3.0
e 200 161 41.0
e 200 244 66.0
e 200 111 10.0
e 200 157 84.0
e 200 265 89.0
e 200 179 78.0
e 200 201 13.0
e 200 68 19.0
e 200 88 25.0
e 200 202 45.0
e 200 282 26.0
e 200 59 40.0
e 200 0 68.0
e 200 96 100.0
e 203 45 14.0
e 203 235 6.0
e 209 21 2.0
e 210 29 4.0
e 214 79 1.0
e 214 198 5.0
e 217 42 94.0
e 217 277 42.0
e 217 108 18.0
e 217 96 47.0
e 217 304 16.0
e 217 111 96.0
e 217 224 24.0
e 217 142 31.0
e 217 235 7.0
e 217 88 10.0
e 217 41 20.0
e 217 271 27.0
e 217 195 43.0
e 217 94 14.0
e 217 73 29.0
e 217 180 38.0
e 217 298 28.0
e 217 84 71.0
e 218 55 5.0
e 218 258 4.0
e 222 13 1.0
e 223 215 5.0
e 223 14 1.0
e 223 302 3.0
e 226 43 36.0
e 226 71 14.0
e 226 217 10.0
e 226 318 15.0
e 226 177 40.0
e 226 31 17.0
e 226 145 47.0
e 226 17 17.0
e 226 283 4.0
e 226 5 32.0
e 226 234 9.0
e 226 235 25.0
e 226 112 17.0
e 226 239 45.0
e 226 24 45.0
e 228 16 4.0
e 228 220 2.0
e 232 290 28.0
e 232 105 34.0
e 232 35 90.0
e 232 11 19.0
e 232 307 11.0
e 232 109 39.0
e 232 12 26.0
e 232 110 38.0
e 232 63 29.0
e 232 286 24.0
e 232 81 25.0
e 232 193 44.0
e 232 117 87.0
e 232 260 15.0
e 232 91 91.0
e 232 100 69.0
e 232 143 99.0
e 232 147 22.0
e 232 89 35.0
e 232 256 62.0
e 232 20 40.0
e 232 137 31.0
e 232 294 96.0
e 232 24 10.0
e 232 67 91.0
e 232 158 73.0
e 232 113 51.0
e 232 40 30.0
e 232 179 46.0
e 232 239 78.0
e 232 311 89.0
e 232 13 32.0
e 232 71 73.0
e 232 58 50.0
e 232 10 82.0
e 232 258 38.0
e 244 269 78.0
e 244 258 71.0
e 244 301 32.0
e 244 168 34.0
e 244 253 31.0
e 244 220 95.0
e 244 1 14.0
e 244 156 87.0
e 244 245 43.0
e 244 44 18.0
e 244 111 61.0
e 244 246 82.0
e 244 151 18.0
e 244 210 76.0
e 244 78 53.0
e 244 33 51.0
e 244 260 82.0
e 244 61 51.0
e 244 170 79.0
e 244 279 20.0
e 244 284 27.0
e 244 54 77.0
e 244 55 38.0
e 244 230 5.0
e 244 306 72.0
e 244 262 26.0
e 244 187 79.0
e 244 305 25.0
e 244 19 53.0
e 244 93 76.0
e 244 231 80.0
e 244 125 91.0
e 244 86 24.0
e 244 10 22.0
e 247 132 3.0
e 247 221 2.0
e 248 205 4.0
e 251 175 1.0
e 255 247 14.0
e 255 275 17.0
e 255 276 21.0
e 255 49 1.0
e 255 59 23.0
e 255 12 4.0
e 259 126 2.0
e 262 307 11.0
e 263 262 1.0
e 264 130 3.0
e 264 8 23.0
e 264 69 47.0
e 264 213 10.0
e 264 224 3.0
e 264 305 90.0
e 264 102 12.0
e 264 296 3.0
e 264 4 10.0
e 266 73 64.0
e 266 190 70.0
e 266 160 75.0
e 266 185 56.0
e 266 183 70.0
e 266 7 68.0
e 266 189 47.0
e 266 65 47.0
e 266 139 3.0
e 266 198 92.0
e 266 140 48.0
e 266 70 44.0
e 266 48 66.0
e 266 296 72.0
e 266 64 81.0
e 266 303 69.0
e 266 36 12.0
e 266 248 48.0
e 266 33 84.0
e 266 287 13.0
e 266 184 22.0
e 266 49 22.0
e 266 249 5.0
e 266 238 90.0
e 266 281 45.0
e 266 142 69.0
e 266 1 15.0
e 266 87 27.0
e 266 98 21.0
e 266 52 16.0
e 266 267 40.0
e 267 1 3.0
e 273 64 4.0
e 273 37 7.0
e 275 81 13.0
e 275 294 19.0
e 275 91 10.0
e 275 112 5.0
e 275 187 8.0
e 275 14 15.0
e 277 156 57.0
e 282 73 9.0
e 282 304 4.0
e 289 158 7.0
e 289 291 9.0
e 289 282 10.0
e 290 188 4.0
e 293 115 5.0
e 300 244 57.0
e 302 181 1.0
e 305 96 100.0
e 305 249 61.0
e 305 253 89.0
e 305 292 82.0
e 305 314 21.0
e 305 129 62.0
e 305 62 44.0
e 305 307 21.0
e 305 160 45.0
e 305 101 81.0
e 305 122 54.0
e 305 36 81.0
e 305 10 68.0
e 305 315 92.0
e 305 223 25.0
e 305 49 75.0
e 305 165 6.0
e 305 74 95.0
e 305 63 27.0
e 305 176 94.0
e 305 145 53.0
e 305 157 21.0
e 305 191 9.0
e 305 192 68.0
e 305 239 20.0
e 305 308 70.0
e 305 17 82.0
e 305 16 57.0
e 305 121 63.0
e 305 179 34.0
e 308 234 69.0
e 308 317 17.0
e 308 300 64.0
e 308 48 49.0
e 308 282 14.0
e 308 190 35.0
e 308 306 21.0
e 308 318 62.0
e 308 118 11.0
e 308 304 34.0
e 308 42 61.0
e 308 133 40.0
e 308 286 83.0
e 308 174 29.0
e 308 275 17.0
e 308 132 15.0
e 308 153 75.0
e 308 296 64.0
e 308 108 21.0
e 308 309 34.0
e 308 310 71.0
e 308 122 84.0
e 308 76 88.0
e 308 30 23.0
e 308 134 43.0
e 308 263 71.0
e 308 113 33.0
e 308 72 45.0
e 308 311 76.0
e 308 17 33.0
e 308 205 56.0
e 308 97 9.0
e 308 71 72.0
e 308 120 89.0
e 310 68 4.0
e 310 70 96.0
e 310 141 11.0
e 310 179 10.0
e 312 162 1.0
e 312 194 15.0
e 312 227 10.0
e 313 122 1.0
e 315 64 5.0
e 315 60 7.0
e 315 91 6.0
e 319 21 3.0
e 319 3 5.0
